DIR: 0.2620146314439963, EFF: 0.4392977276858791, INT: 0.010344181452095598, OBJ: 0.288343459418029
original problem has 232 variables (211 bin, 21 int, 0 impl, 0 cont) and 199 constraints
unknown variable <t_X00232> in line 2 of solution file </mnt/lscratch/users/dferrario/Adaptive-Cutsel-MILP/TransformedSolutions/22433__trans__seed__1.sol>
  (further unknown variables are ignored)
1/1 feasible solution given by solution candidate storage, new primal bound 2.147700e+04

presolving:
   (0.0s) running MILP presolver
   (0.0s) MILP presolver found nothing
   (0.0s) probing: 51/211 (24.2%) - 0 fixings, 0 aggregations, 0 implications, 0 bound changes
   (0.0s) probing aborted: 50/50 successive totally useless probings
presolving (1 rounds: 1 fast, 1 medium, 1 exhaustive):
 20 deleted vars, 1 deleted constraints, 1 added constraints, 1 tightened bounds, 0 added holes, 228 changed sides, 228 changed coefficients
 0 implications, 5 cliques
presolved problem has 212 variables (211 bin, 0 int, 1 impl, 0 cont) and 199 constraints
     67 constraints of type <knapsack>
      5 constraints of type <setppc>
      2 constraints of type <linear>
    125 constraints of type <logicor>
transformed objective value is always integral (scale: 1)
Presolving Time: 0.04

 time | node  | left  |LP iter|LP it/n|mem/heur|mdpt |vars |cons |rows |cuts |sepa|confs|strbr|  dualbound   | primalbound  |  gap   | compl. 
  0.1s|     1 |     0 |   689 |     - |  4016k |   0 | 212 | 199 | 199 |   0 |  0 |   0 |   0 | 2.124100e+04 | 2.147700e+04 |   1.11%| unknown
Computing relative interior point (time limit: 1e+20, iter limit: 6890) ...
  0.4s|     1 |     0 |   837 |     - |    12M |   0 | 212 | 199 | 209 |  10 |  1 |   0 |   0 | 2.128124e+04 | 2.147700e+04 |   0.92%| unknown
  0.5s|     1 |     0 |   980 |     - |    17M |   0 | 213 | 199 | 219 |  20 |  2 |   0 |   0 | 2.128124e+04 | 2.147700e+04 |   0.92%| unknown
  0.5s|     1 |     0 |   980 |     - |    17M |   0 | 213 | 199 | 219 |  20 |  2 |   0 |   0 | 2.130829e+04 | 2.147700e+04 |   0.79%| unknown
  0.7s|     1 |     0 |  1110 |     - |    20M |   0 | 213 | 199 | 229 |  30 |  3 |   0 |   0 | 2.132046e+04 | 2.147700e+04 |   0.73%| unknown
  0.9s|     1 |     0 |  1200 |     - |    27M |   0 | 213 | 199 | 239 |  40 |  4 |   0 |   0 | 2.132640e+04 | 2.147700e+04 |   0.71%| unknown
  1.1s|     1 |     0 |  1377 |     - |    32M |   0 | 213 | 199 | 249 |  50 |  5 |   0 |   0 | 2.133041e+04 | 2.147700e+04 |   0.69%| unknown
  1.4s|     1 |     0 |  1523 |     - |    38M |   0 | 213 | 199 | 258 |  59 |  6 |   0 |   0 | 2.133652e+04 | 2.147700e+04 |   0.66%| unknown
  1.7s|     1 |     0 |  1694 |     - |    44M |   0 | 213 | 199 | 263 |  69 |  7 |   0 |   0 | 2.134586e+04 | 2.147700e+04 |   0.61%| unknown
  2.0s|     1 |     0 |  1889 |     - |    53M |   0 | 213 | 199 | 273 |  79 |  8 |   0 |   0 | 2.135071e+04 | 2.147700e+04 |   0.59%| unknown
  2.3s|     1 |     0 |  2125 |     - |    54M |   0 | 213 | 199 | 283 |  89 |  9 |   0 |   0 | 2.135434e+04 | 2.147700e+04 |   0.57%| unknown
  2.6s|     1 |     0 |  2433 |     - |    59M |   0 | 213 | 199 | 271 |  99 | 10 |   0 |   0 | 2.135775e+04 | 2.147700e+04 |   0.56%| unknown
  3.0s|     1 |     0 |  2506 |     - |    65M |   0 | 213 | 199 | 281 | 109 | 11 |   0 |   0 | 2.136076e+04 | 2.147700e+04 |   0.54%| unknown
  3.3s|     1 |     0 |  2772 |     - |    66M |   0 | 213 | 199 | 291 | 119 | 12 |   0 |   0 | 2.136256e+04 | 2.147700e+04 |   0.54%| unknown
  3.7s|     1 |     0 |  2849 |     - |    72M |   0 | 213 | 199 | 301 | 129 | 13 |   0 |   0 | 2.136384e+04 | 2.147700e+04 |   0.53%| unknown
 time | node  | left  |LP iter|LP it/n|mem/heur|mdpt |vars |cons |rows |cuts |sepa|confs|strbr|  dualbound   | primalbound  |  gap   | compl. 
  4.1s|     1 |     0 |  2909 |     - |    74M |   0 | 213 | 199 | 284 | 139 | 14 |   0 |   0 | 2.136512e+04 | 2.147700e+04 |   0.52%| unknown
  4.5s|     1 |     0 |  3089 |     - |    75M |   0 | 213 | 199 | 294 | 149 | 15 |   0 |   0 | 2.136638e+04 | 2.147700e+04 |   0.52%| unknown
  4.9s|     1 |     0 |  3142 |     - |    83M |   0 | 213 | 199 | 304 | 159 | 16 |   0 |   0 | 2.136743e+04 | 2.147700e+04 |   0.51%| unknown
  5.3s|     1 |     0 |  3347 |     - |    85M |   0 | 213 | 199 | 314 | 169 | 17 |   0 |   0 | 2.136800e+04 | 2.147700e+04 |   0.51%| unknown
  5.7s|     1 |     0 |  3448 |     - |    86M |   0 | 213 | 199 | 324 | 179 | 18 |   0 |   0 | 2.136885e+04 | 2.147700e+04 |   0.51%| unknown
  6.2s|     1 |     0 |  3517 |     - |    99M |   0 | 213 | 199 | 303 | 189 | 19 |   0 |   0 | 2.136965e+04 | 2.147700e+04 |   0.50%| unknown
  6.6s|     1 |     0 |  3588 |     - |   101M |   0 | 213 | 199 | 313 | 199 | 20 |   0 |   0 | 2.137023e+04 | 2.147700e+04 |   0.50%| unknown
  7.0s|     1 |     0 |  3784 |     - |   101M |   0 | 213 | 199 | 323 | 209 | 21 |   0 |   0 | 2.137105e+04 | 2.147700e+04 |   0.50%| unknown
  7.5s|     1 |     0 |  3851 |     - |   116M |   0 | 213 | 199 | 333 | 219 | 22 |   0 |   0 | 2.137227e+04 | 2.147700e+04 |   0.49%| unknown
  8.0s|     1 |     0 |  3935 |     - |   118M |   0 | 213 | 199 | 343 | 229 | 23 |   0 |   0 | 2.137399e+04 | 2.147700e+04 |   0.48%| unknown
  8.5s|     1 |     0 |  3992 |     - |   118M |   0 | 213 | 199 | 313 | 239 | 24 |   0 |   0 | 2.137623e+04 | 2.147700e+04 |   0.47%| unknown
  8.9s|     1 |     0 |  4199 |     - |   120M |   0 | 213 | 199 | 323 | 249 | 25 |   0 |   0 | 2.137892e+04 | 2.147700e+04 |   0.46%| unknown
  9.4s|     1 |     0 |  4256 |     - |   138M |   0 | 213 | 199 | 333 | 259 | 26 |   0 |   0 | 2.138142e+04 | 2.147700e+04 |   0.45%| unknown
  9.9s|     1 |     0 |  4493 |     - |   138M |   0 | 213 | 199 | 343 | 269 | 27 |   0 |   0 | 2.138249e+04 | 2.147700e+04 |   0.44%| unknown
 10.4s|     1 |     0 |  4568 |     - |   139M |   0 | 213 | 199 | 303 | 279 | 28 |   0 |   0 | 2.138366e+04 | 2.147700e+04 |   0.44%| unknown
 time | node  | left  |LP iter|LP it/n|mem/heur|mdpt |vars |cons |rows |cuts |sepa|confs|strbr|  dualbound   | primalbound  |  gap   | compl. 
 10.8s|     1 |     0 |  4635 |     - |   141M |   0 | 213 | 199 | 313 | 289 | 29 |   0 |   0 | 2.138405e+04 | 2.147700e+04 |   0.43%| unknown
 11.2s|     1 |     0 |  4717 |     - |   142M |   0 | 213 | 199 | 323 | 299 | 30 |   0 |   0 | 2.138434e+04 | 2.147700e+04 |   0.43%| unknown
 11.7s|     1 |     0 |  4822 |     - |   162M |   0 | 213 | 199 | 333 | 309 | 31 |   0 |   0 | 2.138503e+04 | 2.147700e+04 |   0.43%| unknown
 12.1s|     1 |     0 |  4898 |     - |   164M |   0 | 213 | 199 | 343 | 319 | 32 |   0 |   0 | 2.138600e+04 | 2.147700e+04 |   0.43%| unknown
 12.6s|     1 |     0 |  5035 |     - |   165M |   0 | 213 | 199 | 353 | 329 | 33 |   0 |   0 | 2.138600e+04 | 2.147700e+04 |   0.43%| unknown
 13.2s|     1 |     0 |  5120 |     - |   165M |   0 | 213 | 199 | 317 | 339 | 34 |   0 |   0 | 2.138600e+04 | 2.147700e+04 |   0.43%| unknown
 13.6s|     1 |     0 |  5306 |     - |   167M |   0 | 213 | 199 | 327 | 349 | 35 |   0 |   0 | 2.138600e+04 | 2.147700e+04 |   0.43%| unknown
 14.0s|     1 |     0 |  5523 |     - |   168M |   0 | 213 | 199 | 337 | 359 | 36 |   0 |   0 | 2.138603e+04 | 2.147700e+04 |   0.43%| unknown
 14.6s|     1 |     0 |  5626 |     - |   192M |   0 | 213 | 199 | 347 | 369 | 37 |   0 |   0 | 2.138636e+04 | 2.147700e+04 |   0.42%| unknown
 15.1s|     1 |     0 |  5733 |     - |   194M |   0 | 213 | 199 | 357 | 379 | 38 |   0 |   0 | 2.138700e+04 | 2.147700e+04 |   0.42%| unknown
 15.6s|     1 |     0 |  5948 |     - |   196M |   0 | 213 | 199 | 367 | 389 | 39 |   0 |   0 | 2.138700e+04 | 2.147700e+04 |   0.42%| unknown
 16.1s|     1 |     0 |  6084 |     - |   197M |   0 | 213 | 199 | 336 | 399 | 40 |   0 |   0 | 2.138711e+04 | 2.147700e+04 |   0.42%| unknown
 16.6s|     1 |     0 |  6310 |     - |   197M |   0 | 213 | 199 | 345 | 408 | 41 |   0 |   0 | 2.138800e+04 | 2.147700e+04 |   0.42%| unknown
 17.1s|     1 |     0 |  6552 |     - |   199M |   0 | 213 | 199 | 355 | 418 | 42 |   0 |   0 | 2.138845e+04 | 2.147700e+04 |   0.41%| unknown
 17.6s|     1 |     0 |  6668 |     - |   199M |   0 | 213 | 199 | 365 | 428 | 43 |   0 |   0 | 2.138903e+04 | 2.147700e+04 |   0.41%| unknown
 time | node  | left  |LP iter|LP it/n|mem/heur|mdpt |vars |cons |rows |cuts |sepa|confs|strbr|  dualbound   | primalbound  |  gap   | compl. 
 18.0s|     1 |     0 |  6748 |     - |   200M |   0 | 213 | 199 | 375 | 438 | 44 |   0 |   0 | 2.138956e+04 | 2.147700e+04 |   0.41%| unknown
 18.5s|     1 |     0 |  6827 |     - |   207M |   0 | 213 | 199 | 385 | 448 | 45 |   0 |   0 | 2.139016e+04 | 2.147700e+04 |   0.41%| unknown
 19.0s|     1 |     0 |  6931 |     - |   231M |   0 | 213 | 199 | 344 | 458 | 46 |   0 |   0 | 2.139100e+04 | 2.147700e+04 |   0.40%| unknown
 19.5s|     1 |     0 |  7095 |     - |   232M |   0 | 213 | 199 | 354 | 468 | 47 |   0 |   0 | 2.139100e+04 | 2.147700e+04 |   0.40%| unknown
 20.0s|     1 |     0 |  7324 |     - |   234M |   0 | 213 | 199 | 364 | 478 | 48 |   0 |   0 | 2.139102e+04 | 2.147700e+04 |   0.40%| unknown
 20.4s|     1 |     0 |  7426 |     - |   235M |   0 | 213 | 199 | 374 | 488 | 49 |   0 |   0 | 2.139135e+04 | 2.147700e+04 |   0.40%| unknown
 20.4s|     1 |     0 |  7486 |     - |   235M |   0 | 213 | 199 | 378 | 492 | 50 |   0 |   0 | 2.139200e+04 | 2.147700e+04 |   0.40%| unknown
 20.4s|     1 |     2 |  7486 |     - |   235M |   0 | 213 | 199 | 378 | 492 | 50 |   0 |   0 | 2.139200e+04 | 2.147700e+04 |   0.40%| unknown

SCIP Status        : solving was interrupted [node limit reached]
Solving Time (sec) : 20.45
Solving Nodes      : 1
Primal Bound       : +2.14770000000000e+04 (1 solutions)
Dual Bound         : +2.13919999999999e+04
Gap                : 0.40 %
